
  14    0


   0   7 2 3 4 5 11 12 13 
  10   2 10 9 
  10   2 8 6 
   7   1 7 
   1   1 6 
   5   1 14
   8   1 14
   7   1 14
   2   1 14
   8   1 14
   5   1 14
   2   1 14
   2   1 14
   0   0 
